problems/VanDerWaerdenNumbers/VanDerWaerden-models/noch/O2/lingeling/model_4-k3l4n30-solution000001.solution
language Essence 1.3

letting p be
        partition({1, 3, 4, 7, 8, 12, 13, 14, 17, 20, 24, 25, 29, 30}, {2, 9, 10, 15, 16},
                  {5, 6, 11, 18, 19, 21, 22, 23, 26, 27, 28})
